2025-04-29 15:11:48,360 - INFO - --- optimisation run for ISONE ---
2025-04-29 15:11:48,365 - INFO - Loaded Price_hourly.csv (8760 rows)
2025-04-29 15:11:48,375 - INFO - Loaded Price_ANS_hourly.csv (8760 rows)
2025-04-29 15:11:48,376 - INFO - Loaded sys_data_advanced.csv (45 rows)
2025-04-29 15:11:48,377 - INFO - Creating STANDARDIZED model for ISONE...
2025-04-29 15:11:48,377 - INFO - Loading parameters...
2025-04-29 15:11:48,382 - WARNING - Implicitly replacing the Component attribute pTurbine_min (type=<class 'pyomo.core.base.param.ScalarParam'>) on block Optimize_Profit_Standardized_ISONE with a new Component (type=<class 'pyomo.core.base.param.ScalarParam'>).
This is usually indicative of a modelling error.
To avoid this warning, use block.del_component() and block.add_component().
2025-04-29 15:11:48,382 - WARNING - Implicitly replacing the Component attribute pTurbine_max (type=<class 'pyomo.core.base.param.ScalarParam'>) on block Optimize_Profit_Standardized_ISONE with a new Component (type=<class 'pyomo.core.base.param.ScalarParam'>).
This is usually indicative of a modelling error.
To avoid this warning, use block.del_component() and block.add_component().
2025-04-29 15:11:48,382 - INFO - Successfully loaded and enabled non-linear turbine efficiency.
2025-04-29 15:11:48,383 - INFO - Loaded electrolyzer piecewise parameters (ke, kt). Ensure build_piecewise_efficiency_constraints uses them correctly.
2025-04-29 15:11:48,697 - INFO - Defining variables...
2025-04-29 15:11:48,956 - INFO - Defining constraints...
2025-04-29 15:11:49,526 - INFO - Added Linearized qSteam_Electrolyzer Ramp Constraint.
2025-04-29 15:11:49,526 - WARNING - Electrolyzer efficiency relationship (pElectrolyzer, mHydrogenProduced, qSteam_Electrolyzer) is NOT YET CONSTRAINED. Implement 'build_piecewise_efficiency_constraints'. Using simple fallback.
2025-04-29 15:11:49,707 - INFO - Building piece‑wise constraints for TurbinePower
2025-04-29 15:11:50,074 - INFO - Applying non-linear turbine efficiency constraints.
2025-04-29 15:11:52,205 - INFO - Defining objective function (Maximize Profit)...
2025-04-29 15:11:52,657 - INFO - Standardized model created successfully.
2025-04-29 15:11:52,669 - INFO - Set parameter Username
2025-04-29 15:11:52,674 - INFO - Academic license - for non-commercial use only - expires 2026-04-25
2025-04-29 15:12:00,364 - INFO - Read LP format model from file /tmp/tmp6xdomy8c.pyomo.lp
2025-04-29 15:12:00,364 - INFO - Reading time = 0.61 seconds
2025-04-29 15:12:00,364 - INFO - x1: 350388 rows, 324116 columns, 1051159 nonzeros
2025-04-29 15:12:00,364 - INFO - Gurobi Optimizer version 12.0.1 build v12.0.1rc0 (linux64 - "Ubuntu 22.04.5 LTS")
2025-04-29 15:12:00,364 - INFO - 
2025-04-29 15:12:00,364 - INFO - CPU model: AMD Ryzen Threadripper PRO 5995WX 64-Cores, instruction set [SSE2|AVX|AVX2]
2025-04-29 15:12:00,364 - INFO - Thread count: 64 physical cores, 128 logical processors, using up to 32 threads
2025-04-29 15:12:00,365 - INFO - 
2025-04-29 15:12:00,365 - INFO - Optimize a model with 350388 rows, 324116 columns and 1051159 nonzeros
2025-04-29 15:12:00,377 - INFO - Model fingerprint: 0x36d558f5
2025-04-29 15:12:00,377 - INFO - Model has 8760 quadratic constraints
2025-04-29 15:12:00,377 - INFO - Model has 8760 SOS constraints
2025-04-29 15:12:00,377 - INFO - Variable types: 297836 continuous, 26280 integer (26280 binary)
2025-04-29 15:12:00,379 - INFO - Coefficient statistics:
2025-04-29 15:12:00,379 - INFO -   Matrix range     [2e-02, 2e+03]
2025-04-29 15:12:00,379 - INFO -   QMatrix range    [2e-07, 2e-07]
2025-04-29 15:12:00,379 - INFO -   QLMatrix range   [1e-02, 1e+00]
2025-04-29 15:12:00,379 - INFO -   Objective range  [1e-02, 5e+02]
2025-04-29 15:12:00,379 - INFO -   Bounds range     [1e+00, 5e+04]
2025-04-29 15:12:00,379 - INFO -   RHS range        [1e+00, 5e+04]
2025-04-29 15:12:02,088 - INFO - Presolve removed 262810 rows and 219914 columns
2025-04-29 15:12:02,088 - INFO - Presolve time: 1.70s
2025-04-29 15:12:02,091 - INFO - Presolved: 122578 rows, 112952 columns, 366852 nonzeros
2025-04-29 15:12:02,145 - INFO - Variable types: 95433 continuous, 17519 integer (17519 binary)
2025-04-29 15:12:02,462 - INFO - Deterministic concurrent LP optimizer: primal and dual simplex
2025-04-29 15:12:02,463 - INFO - Showing primal log only...
2025-04-29 15:12:02,463 - INFO - 
2025-04-29 15:12:02,631 - INFO - Concurrent spin time: 0.01s
2025-04-29 15:12:02,631 - INFO - 
2025-04-29 15:12:02,631 - INFO - Solved with dual simplex
2025-04-29 15:12:02,671 - INFO - 
2025-04-29 15:12:02,671 - INFO - Root relaxation: objective 3.039860e+08, 25937 iterations, 0.35 seconds (0.38 work units)
2025-04-29 15:12:02,727 - INFO - 
2025-04-29 15:12:02,727 - INFO -     Nodes    |    Current Node    |     Objective Bounds      |     Work
2025-04-29 15:12:02,727 - INFO -  Expl Unexpl |  Obj  Depth IntInf | Incumbent    BestBd   Gap | It/Node Time
2025-04-29 15:12:02,727 - INFO - 
2025-04-29 15:12:02,727 - INFO - *    0     0               0    3.039860e+08 3.0399e+08  0.00%     -    2s
2025-04-29 15:12:02,858 - INFO - 
2025-04-29 15:12:02,858 - INFO - Explored 1 nodes (25937 simplex iterations) in 2.49 seconds (3.29 work units)
2025-04-29 15:12:02,858 - INFO - Thread count was 32 (of 128 available processors)
2025-04-29 15:12:02,858 - INFO - 
2025-04-29 15:12:02,858 - INFO - Solution count 1: 3.03986e+08 
2025-04-29 15:12:02,858 - INFO - 
2025-04-29 15:12:02,858 - INFO - Optimal solution found (tolerance 1.00e-04)
2025-04-29 15:12:02,861 - INFO - Best objective 3.039859602338e+08, best bound 3.039859602338e+08, gap 0.0000%
2025-04-29 15:12:04,437 - INFO - Extracting results for ISONE...
2025-04-29 15:12:04,549 - INFO - Results saved to ../Results_Standardized/ISONE_Hourly_Results_Standardized.csv
2025-04-29 15:12:04,752 - INFO - Optimisation finished – Profit = $303985960.23
2025-04-29 15:12:04,752 - INFO - Log saved to ../logs/ISONE_optimization_standardized.log
